db/inputs/164261662226287311911384878373227320139.smt2
(set-logic QF_FP)
(declare-const x0 (_ FloatingPoint 11 53))
(declare-const x1 (_ FloatingPoint 11 53))
(declare-const x2 (_ FloatingPoint 11 53))
(declare-const x3 (_ FloatingPoint 11 53))
(declare-const x4 (_ FloatingPoint 11 53))
(declare-const x5 (_ FloatingPoint 11 53))
(declare-const x6 (_ FloatingPoint 11 53))
(declare-const x7 (_ FloatingPoint 11 53))
(declare-const x8 (_ FloatingPoint 11 53))
(declare-const x9 (_ FloatingPoint 11 53))
(declare-const x10 (_ FloatingPoint 11 53))
(declare-const x11 (_ FloatingPoint 11 53))
(declare-const x12 (_ FloatingPoint 11 53))
(declare-const x13 (_ FloatingPoint 11 53))
(declare-const x14 (_ FloatingPoint 11 53))
(declare-const x15 (_ FloatingPoint 11 53))
(declare-const x16 (_ FloatingPoint 11 53))
(assert (fp.gt (fp.add RNE x15 x9) (fp.add RNE x1 x16)))
(assert (fp.eq (fp.sub RNE x15 x14) (fp.mul RNE x15 x14)))
(assert (fp.leq (fp.mul RNE x2 x9) (fp.neg x12)))
(assert (fp.geq (fp.sub RNE x11 x12) (fp.div RNE x12 x9)))
(assert (fp.lt (fp.mul RNE x8 x13) (fp.mul RNE x9 x12)))
(assert (fp.lt (fp.add RNE x3 x8) (fp.sub RNE x5 x14)))
(assert (fp.geq (fp.add RNE x9 x15) (fp.sub RNE x11 x2)))
(assert (fp.leq (fp.neg x16) (fp.mul RNE x8 x12)))
(assert (fp.lt (fp.div RNE x3 x5) (fp.sub RNE x14 x11)))
(assert (fp.eq (fp.div RNE x0 x7) (fp.sub RNE x13 x6)))
(assert (fp.gt (fp.div RNE x0 x8) (fp.mul RNE x5 x8)))
(assert (fp.gt (fp.neg x7) (fp.sub RNE x12 x8)))
(assert (fp.geq (fp.div RNE x16 x0) (fp.neg x12)))
(assert (fp.leq (fp.add RNE x11 x5) (fp.add RNE x1 x15)))
(assert (fp.lt (fp.neg x6) (fp.mul RNE x6 x10)))
(assert (fp.eq (fp.div RNE x6 x11) (fp.mul RNE x8 x3)))
(assert (fp.gt (fp.mul RNE x14 x13) (fp.div RNE x14 x6)))
(check-sat)
