db/data/164261662226287311911384878373227320139.z3.out
-------------------
2500.052398307
